135
1000000
145723
159848
238696
111046
204414
115411
13351
136122
236646
91499
23718
197321
19577
84153
151670
146559
29662
37462
118420
34052
48081
50589
3319
66572
28097
77327
227558
162553
77871
93182
196710
25184
95538
204971
55014
120455
197413
115222
51744
78747
25497
194252
217864
77848
3223
113949
137757
109624
107264
98934
126453
93280
138462
68763
146196
199873
11198
16059
210417
190235
229974
113920
227264
209933
5990
183840
169964
96830
203020
3832
146411
11691
36029
95395
125854
201634
105266
76153
96379
248013
19027
163016
89522
158049
161715
145699
61520
122250
38808
137329
244388
27046
215109
156037
175989
242143
153029
204247
172214
22864
52093
101609
65143
198993
27315
108394
147917
44735
103972
96369
13357
136
203035
18494
142425
90993
70178
11421
215892
34192
138143
69584
137198
53927
30103
28651
50030
222035
213617
98783
22612
8038
231905
21098
71575
